p cnf 15 25
15 13 -4 0
-15 -11 -7 0
-14 13 -1 0
14 -12 9 0
14 -10 3 0
-13 12 10 0
-13 12 1 0
-13 -11 -8 0
-13 10 3 0
12 -10 1 0
12 -9 5 0
-12 8 -4 0
-11 10 -2 0
11 9 -1 0
11 8 6 0
11 -5 1 0
-11 -4 -2 0
-11 2 1 0
-10 9 6 0
-10 -9 -5 0
10 7 3 0
9 -6 -3 0
9 3 2 0
8 -3 2 0
8 2 -1 0
